(set-logic LIA)

(declare-const m Int)
(declare-const m! Int)
(declare-const k Int)
(declare-const k! Int)
(declare-const j Int)
(declare-const j! Int)
(declare-const a Int)
(declare-const a! Int)

(declare-const m_27 Int)
(declare-const m_26 Int)
(declare-const m_19 Int)
(declare-const m_0 Int)
(declare-const k_25 Int)
(declare-const k_20 Int)
(declare-const k_18 Int)
(declare-const j_17 Int)
(declare-const a_0 Int)

(define-fun inv-f((a Int)(j Int)(k Int)(m Int)) Bool
